Optimal - objective value 4.00000000
      0 C0000000               4                      -0
      1 C0000001               9                      -0
      2 C0000002               0                      -0
      3 C0000003               2                      -0
      0 X0000000               1                       3
      1 X0000001               1                       1
